NAME: uk-teams-n201
COMMENT: Generated by Graham Kendall, Geoffrey De Smet, Nasser Sabar and Angelina Yee.
TYPE: TSP
DIMENSION: 201
EDGE_WEIGHT_TYPE: EUC_2D
NODE_COORD_SECTION
0 52.4756 -1.8682 Birmingham_City_(BIR)
1 53.7286 -2.4894 Blackburn_Rovers_(BLR)
2 53.8046 -3.0483 Blackpool_(BLA)
3 53.5805 -2.5357 Bolton_Wanderers_(BOL)
4 50.7352 -1.8384 Bournemouth_(BOU)
5 51.4882 -0.3026 Brentford_(BRC)
6 50.8609 -0.0801 Brighton_and_Hove_Albion_(BHA)
7 51.4729 -3.2041 Cardiff_City_(CAR)
8 51.4865 0.0368 Charlton_Athletic_(CHA)
9 52.9149 -1.4473 Derby_County_(DER)
10 51.4749 -0.2216 Fulham_(FUL)
11 53.6543 -1.7684 Huddersfield_Town_(HUD)
12 52.0544 1.1455 Ipswich_Town_(IPS)
13 53.7775 -1.5721 Leeds_United_(LEE)
14 54.5781 -1.2178 Middlesbrough__(MID)
15 51.4859 -0.0507 Millwall_(MIL)
16 52.6221 1.3091 Norwich_City_(NOR)
17 52.9399 -1.1326 Nottingham_Forest_(NOT)
18 51.4222 -0.9828 Reading_(REA)
19 53.4281 -1.3617 Rotherham_United_(ROT)
20 53.4115 -1.5008 Sheffield_Wednesday_(SHW)
21 51.6498 -0.4016 Watford_(WAT)
22 53.5477 -2.6542 Wigan_Athletic_(WIG)
23 52.5904 -2.1306 Wolverhampton_Wanderers_(WOL)
24 53.7824 -2.8773 A.F.C._Fylde_(FLY)
25 54.1238 -3.2353 Barrow_(BRW)
26 52.9769 -0.0189 Boston_United_(BOS)
27 52.0246 -1.144 Brackley_Town_(BCT)
28 53.7587 -1.7769 Bradford_Park_Avenue_(BRA)
29 53.6457 -2.6292 Chorley_(CHO)
30 53.2819 -3.6984 Colwyn_Bay_(CLB)
31 53.4039 -0.7746 Gainsborough_Trinity_(GAI)
32 51.9058 -2.0622 Gloucester_City_(GLO)
33 53.8767 -1.7196 Guiseley_(GUI)
34 53.9915 -1.5155 Harrogate_Town_(HAT)
35 52.6974 -1.9896 Hednesford_Town_(HED)
36 53.4513 -2.0677 Hyde_(HYD)
37 52.2444 -1.5035 Leamington_(LEA)
38 52.4801 1.7476 Lowestoft_Town_(LOW)
39 53.7174 -0.5 North_Ferriby_United_(NFU)
40 51.7724 -1.2292 Oxford_City_(OXC)
41 52.4389 -1.7572 Solihull_Moors_(SOL)
42 53.4758 -2.0433 Stalybridge_Celtic_(SYC)
43 53.4 -2.167 Stockport_County_(STC)
44 52.6286 -1.6888 Tamworth_(TAM)
45 52.2047 -2.2229 Worcester_City_(WOR)
46 51.252 -1.1112 Basingstoke_Town_(BAS)
47 51.3793 -2.395 Bath_City_(BAT)
48 51.8727 0.1917 Bishop's_Stortford_(BIS)
49 51.6619 -0.2724 Boreham_Wood_(BOR)
50 51.3903 0.0205 Bromley_(BRO)
51 51.7533 0.4514 Chelmsford_City_(CHC)
52 51.5166 0.5745 Concord_Rangers_(CON)
53 50.8036 0.3202 Eastbourne_Borough_(EAB)
54 51.4497 0.3226 Ebbsfleet_United_(EBB)
55 51.3105 -0.7621 Farnborough_(FAR)
56 50.7948 -1.1565 Gosport_Borough_(GOS)
57 50.8666 -0.9749 Havant_and_Waterlooville_(HAV)
58 51.5085 -0.3949 Hayes_and_Yeading_United_(HAY)
59 51.7538 -0.4444 Hemel_Hempstead_Town_(HEM)
60 51.5199 -0.7179 Maidenhead_United_(MAI)
61 51.1038 -1.7859 Salisbury_City_(SAL)
62 51.7544 -0.3229 St_Albans_City_(SAC)
63 51.4199 -0.5022 Staines_Town_(STA)
64 51.3672 -0.2051 Sutton_United_(SUT)
65 51.5698 -0.4157 Wealdstone_(WEA)
66 51.331 -2.9554 Weston-super-Mare_(WSM)
67 50.8214 -0.096 Whitehawk_(WHI)
68 51.5549 -0.1084 Arsenal_(ARS)
69 52.5092 -1.8851 Aston_Villa_(AST)
70 53.7888 -2.2302 Burnley_(BUR)
71 51.4816 -0.191 Chelsea_(CHE)
72 51.3983 -0.0855 Crystal_Palace_(CRY)
73 53.4387 -2.9662 Everton_(EVE)
74 53.7465 -0.368 Hull_City_(HUL)
75 52.6203 -1.1422 Leicester_City_(LEI)
76 53.4308 -2.961 Liverpool_(LIV)
77 53.483 -2.2002 Manchester_City_(MNC)
78 53.4631 -2.2914 Manchester_United_(MNU)
79 54.9756 -1.6218 Newcastle_United_(NEU)
80 51.5093 -0.2322 Queens_Park_Rangers_(QPR)
81 50.9058 -1.3911 Southampton_(SOU)
82 52.9884 -2.1754 Stoke_City_(STO)
83 54.9146 -1.3884 Sunderland_(SUN)
84 51.6428 -3.9347 Swansea_City_(SWA)
85 51.6033 -0.0657 Tottenham_Hotspur_(TOT)
86 52.509 -1.9642 West_Bromwich_Albion_(WBA)
87 51.5321 0.0392 West_Ham_(WES)
88 53.5524 -1.4676 Barnsley_(BRN)
89 53.8042 -1.759 Bradford_City_(BDC)
90 51.44 -2.6202 Bristol_City_(BRI)
91 53.2535 -1.4272 Chesterfield_(CHT)
92 51.9234 0.8979 Colchester_United_(COL)
93 52.4481 -1.4956 Coventry_City_(COV)
94 51.0996 -0.1946 Crawley_Town_(CRA)
95 53.0875 -2.4357 Crewe_Alexandra_(CRE)
96 53.5099 -1.1138 Doncaster_Rovers_(DON)
97 53.9165 -3.0248 Fleetwood_Town_(FLE)
98 51.3844 0.5604 Gillingham_(GIL)
99 51.5601 -0.0126 Leyton_Orient_(LEY)
100 52.0096 -0.7335 MK_Dons_(MK_)
101 52.9425 -1.137 Notts_County_(NTC)
102 53.5551 -2.1285 Oldham_Athletic_(OLD)
103 52.5648 -0.2404 Peterborough_United_(PTU)
104 53.05 -2.1926 Port_Vale_(PVA)
105 53.772 -2.6883 Preston_North_End_(PRE)
106 53.6209 -2.1799 Rochdale_(ROC)
107 53.5867 -0.6952 Scunthorpe_United_(SCU)
108 53.3703 -1.4708 Sheffield_United_(SHU)
109 51.5645 -1.7711 Swindon_Town_(SWI)
110 52.5655 -1.9905 Walsall_(WAL)
111 50.9503 -2.6738 Yeovil_Town_(YEO)
112 53.7654 -2.3711 Accrington_Stanley_(ACC)
113 51.4051 -0.282 AFC_Wimbledon_(AFC)
114 52.8219 -1.6271 Burton_Albion_(BUA)
115 53.5805 -2.2949 Bury_(BRY)
116 52.2126 0.1543 Cambridge_United_(CAM)
117 54.8955 -2.9137 Carlisle_United_(CAU)
118 51.9062 -2.0602 Cheltenham_Town_(CHL)
119 51.5478 0.1597 Dagenham_and_Redbridge_(DAG)
120 50.7307 -3.5211 Exeter_City_(EXE)
121 54.6891 -1.2127 Hartlepool_United_(HAR)
122 51.884 -0.4316 Luton_Town_(LUT)
123 53.1377 -1.2013 Mansfield_Town_(MAN)
124 54.0675 -2.8471 Morecambe_(MOR)
125 51.5887 -2.9889 Newport_County_(NEW)
126 52.2352 -0.9335 Northampton_Town_(NRT)
127 51.7164 -1.2078 Oxford_United_(OXU)
128 50.3882 -4.1508 Plymouth_Argyle_(PLY)
129 50.7964 -1.0639 Portsmouth_(POR)
130 52.6886 -2.7493 Shrewsbury_Town_(SHR)
131 51.5491 0.7016 Southend_United_(STU)
132 51.8898 -0.1937 Stevenage_Borough_(STE)
133 53.3738 -3.0327 Tranmere_Rovers_(TRA)
134 51.6306 -0.8003 Wycombe_Wanderers_(WYC)
135 53.9695 -1.0883 York_City_(YOR)
136 55.8601 -3.96 Airdrieonians_(AIR)
137 55.4697 -4.62 Ayr_United_(AYR)
138 56.7353 -2.6565 Brechin_City_(BRE)
139 56.0756 -3.442 Dunfermline_(DUF)
140 56.6523 -2.8849 Forfar_Athletic_(FOR)
141 55.9414 -4.7272 Greenock_Morton_(GRE)
142 57.5112 -1.796 Peterhead_(PET)
143 56.0282 -3.8145 Stenhousemuir_&_East_Stirlingshire_(STN&EAS)
144 56.1191 -3.9119 Stirling_Albion_(STI)
145 54.9022 -5.0125 Stranraer_(STR)
146 55.8602 -4.0115 Albion_Rovers_(ALB)
147 54.9948 -3.2612 Annan_Athletic_(ANN)
148 56.5523 -2.5914 Arbroath_(ARB)
149 55.76 -2.016 Berwick_Rangers_(BER)
150 55.9447 -4.0379 Clyde_(CLY)
151 56.1889 -2.9991 East_Fife_(EAF)
153 57.6518 -3.3209 Elgin_City_(ELG)
154 56.714 -2.459 Montrose_(MON)
155 55.8258 -4.252 Queen's_Park_(QUP)
156 56.1166 -3.7787 Alloa_Athletic_(ALL)
157 56.1088 -3.3472 Cowdenbeath_(COW)
158 55.9384 -4.5616 Dumbarton_(DUM)
159 56.0053 -3.7526 Falkirk_(FAL)
160 55.9388 -3.2325 Heart_of_Midlothian_(HEA)
161 55.9616 -3.1652 Hibernian_(HIB)
162 55.8864 -3.5221 Livingston_(LVG)
163 55.0703 -3.6246 Queen_of_the_South_(QUE)
164 56.0999 -3.1685 Raith_Rovers_(RAI)
165 55.8529 -4.3096 Rangers_(RAN)
166 57.1593 -2.0887 Aberdeen_(ABE)
167 55.8497 -4.2056 Celtic_(CEL)
168 56.4747 -2.9735 Dundee_(DUN)
169 56.4748 -2.969 Dundee_United_(DUU)
170 55.7821 -4.058 Hamilton_Academical_(HAM)
171 57.4951 -4.2175 Inverness_Caledonian_Thistle_(INV)
172 55.6046 -4.5085 Kilmarnock_(KIL)
173 55.7804 -3.9803 Motherwell_(MOT)
174 55.8815 -4.2694 Partick_Thistle_(PAR)
175 57.5959 -4.419 Ross_County_(ROS)
176 56.4099 -3.4768 St_Johnstone_(STJ)
177 55.8529 -4.4288 St_Mirren_(STM)
178 52.6973 -2.5014 A.F.C._Telford_United_(TEL)
179 51.2484 -0.7547 Aldershot_Town_(ALD)
180 53.0945 -1.3813 Alfreton_Town_(ALF)
181 53.383 -2.3356 Altrincham_(ALT)
182 51.6468 -0.1912 Barnet_(BAR)
183 51.8755 0.5727 Braintree_Town_(BRT)
184 51.4861 -2.5835 Bristol_Rovers_(BRR)
185 53.1893 -2.9235 Chester_(CST)
186 51.4368 0.2307 Dartford_(DAR)
187 51.1383 1.2852 Dover_Athletic_(DOV)
188 50.9523 -1.372 Eastleigh_(ETL)
189 53.7162 -1.8588 FC_Halifax_Town_(FC_)
190 51.699 -2.2379 Forest_Green_Rovers_(FGR)
191 54.9609 -1.5813 Gateshead_(GAT)
192 53.5702 -0.0465 Grimsby_Town_(GRI)
193 52.3809 -2.2436 Kidderminster_Harriers_(KID)
194 53.2183 -0.5407 Lincoln_City_(LIN)
195 53.2427 -2.1265 Macclesfield_Town_(MAC)
196 52.5209 -1.4428 Nuneaton_Town_(NUN)
197 53.6385 -2.9792 Southport_(SOP)
198 50.4764 -3.5238 Torquay_United_(TOU)
199 51.4603 0.1165 Welling_United_(WEL)
200 51.3061 -0.5598 Woking_(WOK)
201 53.0516 -3.0049 Wrexham_(WRE)
EOF
